u120_18
150 120 49 52
35 0
28 0
82 0
73 1
34 1
92 2
51 2
35 1
51 3
47 3
64 4
89 5
72 4
89 6
22 3
52 5
75 7
85 8
73 7
83 9
56 6
58 8
57 9
64 10
50 10
66 11
26 3
80 11
61 12
54 12
40 13
89 13
46 14
45 14
59 15
51 14
79 15
73 16
95 17
42 16
21 10
64 18
73 18
68 19
65 19
100 20
50 17
81 21
55 21
71 22
44 20
63 22
76 23
36 23
73 24
74 24
98 25
36 23
97 26
23 12
58 27
50 25
70 27
75 28
97 29
76 30
24 16
72 28
34 26
36 29
67 30
45 31
55 31
94 32
63 33
100 34
95 35
54 32
40 31
62 33
68 36
87 37
48 34
37 35
85 38
73 36
62 37
22 33
23 38
33 38
81 39
41 39
27 39
95 40
46 40
69 41
45 41
39 42
32 41
98 42
41 43
46 43
100 44
86 45
84 46
39 43
67 47
34 44
92 48
59 45
43 46
21 27
56 47
88 49
26 47
35 48
51 49
22 43
100 50
96 51